Route #1: 26 29 5 45 27 38 16 
Route #2: 19 30 59 43 58 21 44 
Route #3: 28 32 17 37 9 7 
Route #4: 56 51 52 23 34 25 
Route #5: 33 10 39 61 36 49 13 
Route #6: 2 41 35 50 14 40 55 
Route #7: 11 53 6 48 8 54 
Route #8: 15 12 47 4 46 31 42 3 60 
Route #9: 20 24 1 18 62 57 22 
cost 2347.49
